139 357
17 9 
17 9 
17 9 
9 14 
9 14 
15 14 
15 14 
15 14 
14 8 
14 8 
13 9 
13 9 
11 8 
11 8 
11 8 
8 6 
8 6 
6 19 
6 19 
6 19 
6 19 
6 19 
18 48 
18 48 
18 48 
18 48 
17 15 
17 15 
17 15 
16 8 
16 8 
7 15 
7 15 
7 15 
7 15 
7 15 
18 14 
18 14 
18 14 
18 14 
18 14 
13 13 
13 13 
13 13 
8 12 
8 12 
18 6 
18 6 
18 6 
10 19 
10 19 
10 19 
10 19 
10 19 
10 19 
10 19 
8 34 
8 34 
15 14 
15 14 
15 14 
15 14 
13 15 
13 15 
9 14 
9 14 
9 14 
3 16 
3 16 
3 16 
3 16 
3 16 
3 16 
4 15 
4 15 
4 15 
4 15 
4 15 
6 29 
6 29 
6 29 
6 29 
6 29 
6 29 
6 29 
6 29 
6 29 
8 29 
8 29 
8 29 
8 29 
8 29 
8 29 
8 29 
8 29 
26 14 
26 14 
26 14 
26 14 
26 14 
6 27 
6 27 
6 27 
16 23 
16 23 
12 23 
12 23 
12 23 
12 23 
12 23 
12 16 
12 16 
12 16 
12 16 
12 16 
14 25 
14 25 
22 35 
22 35 
15 23 
15 19 
15 19 
15 19 
14 12 
14 12 
14 12 
121 16 
121 16 
21 25 
21 25 
21 25 
15 19 
15 19 
15 19 
15 19 
25 15 
25 15 
17 23 
17 23 
